Reading model...
...model read.
creating competitive generators file...
...competitive generators recorded.
Loading data...
.. real-time data read.
Compiling instance...
...instance created.
Creating Offer Mitigation (model will solve as dispatch if TRUE)...
...storage offer mitigation file created
Converting model to MPEC...
...converted
NOTE: initial MIP solve with only storage competitive to get feasible solution
Solving...

Welcome to IBM(R) ILOG(R) CPLEX(R) Interactive Optimizer 12.9.0.0
  with Simplex, Mixed Integer & Barrier Optimizers
5725-A06 5725-A29 5724-Y48 5724-Y49 5724-Y54 5724-Y55 5655-Y21
Copyright IBM Corp. 1988, 2019.  All Rights Reserved.

Type 'help' for a list of available commands.
Type 'help' followed by a command name for more
information on commands.

CPLEX> Logfile 'cplex.log' closed.
Logfile 'C:\Users\llavin\Desktop\test826\logs\tmp1k02j1pi.cplex.log' open.
CPLEX> New value for parallel optimization mode: -1
CPLEX> New value for mixed integer optimality gap tolerance: 0.5
CPLEX> New value for feasibility tolerance: 1e-09
CPLEX> New value for deterministic time limit in ticks: 50000
CPLEX> Problem 'C:\Users\llavin\Desktop\test826\logs\tmp9nxo3lym.pyomo.lp' read.
Read time = 0.51 sec. (28.86 ticks)
CPLEX> Problem name         : C:\Users\llavin\Desktop\test826\logs\tmp9nxo3lym.pyomo.lp
Objective sense      : Maximize
Variables            :  107783  [Nneg: 1,  Box: 44058,  Free: 8928,
                                 Binary: 54796]
Objective nonzeros   :   19058
Linear constraints   :  246903  [Less: 82866,  Greater: 118424,  Equal: 45613]
  Nonzeros           :  619901
  RHS nonzeros       :  136514

Variables            : Min LB: -5000.000        Max UB: 1000000.       
Objective nonzeros   : Min   : 0.1666667        Max   : 208.3333       
Linear constraints   :
  Nonzeros           : Min   : 0.1666667        Max   : 1000000.       
  RHS nonzeros       : Min   : 0.1666667        Max   : 1000000.       
CPLEX> CPXPARAM_Parallel                                -1
CPXPARAM_Simplex_Tolerances_Feasibility          1.0000000000000001e-09
CPXPARAM_DetTimeLimit                            50000
CPXPARAM_MIP_Tolerances_MIPGap                   0.5
Tried aggregator 3 times.
MIP Presolve eliminated 173633 rows and 34672 columns.
MIP Presolve added 7679 rows and 0 columns.
MIP Presolve modified 53008 coefficients.
Aggregator did 26046 substitutions.
Reduced MIP has 54903 rows, 46681 columns, and 157474 nonzeros.
Reduced MIP has 18495 binaries, 0 generals, 0 SOSs, and 0 indicators.
Presolve time = 0.59 sec. (349.96 ticks)
Probing fixed 810 vars, tightened 15592 bounds.
Probing time = 0.42 sec. (18.87 ticks)
Tried aggregator 2 times.
MIP Presolve eliminated 1828 rows and 1645 columns.
MIP Presolve modified 7067 coefficients.
Aggregator did 80 substitutions.
Reduced MIP has 52995 rows, 44956 columns, and 151853 nonzeros.
Reduced MIP has 17680 binaries, 0 generals, 0 SOSs, and 0 indicators.
Presolve time = 0.30 sec. (277.01 ticks)
Probing fixed 5 vars, tightened 476 bounds.
Probing time = 0.56 sec. (21.61 ticks)
Clique table members: 86906.
MIP emphasis: balance optimality and feasibility.
MIP search method: dynamic search.
Parallel mode: opportunistic, using up to 32 threads.
Root relaxation solution time = 1.16 sec. (1823.20 ticks)

        Nodes                                         Cuts/
   Node  Left     Objective  IInf  Best Integer    Best Bound    ItCnt     Gap

      0     0        0.0000    21                      0.0000     8064         
*     0+    0                            0.0000        0.0000             0.00%
      0     0        cutoff              0.0000        0.0000     8064    0.00%
Elapsed time = 3.88 sec. (3009.63 ticks, tree = 0.01 MB, solutions = 1)

Root node processing (before b&c):
  Real time             =    3.91 sec. (3013.63 ticks)
Parallel b&c, 32 threads:
  Real time             =    0.00 sec. (0.00 ticks)
  Sync time (average)   =    0.00 sec.
  Wait time (average)   =    0.00 sec.
                          ------------
Total (root+branch&cut) =    3.91 sec. (3013.63 ticks)

Solution pool: 1 solution saved.

MIP - Integer optimal solution:  Objective =  6.4022742663e-10
Solution time =    3.94 sec.  Iterations = 8064  Nodes = 0
Deterministic time = 3013.94 ticks  (765.35 ticks/sec)

CPLEX> Incumbent solution written to file 'C:\Users\llavin\Desktop\test826\logs\tmp_llbhfn3.cplex.sol'.
CPLEX> NOTE: no warmstart specified for MIP iteration, default behavior is true
NOTE: resolving with all competitive generators using storage-only solution to warmstart
Solving...

Welcome to IBM(R) ILOG(R) CPLEX(R) Interactive Optimizer 12.9.0.0
  with Simplex, Mixed Integer & Barrier Optimizers
5725-A06 5725-A29 5724-Y48 5724-Y49 5724-Y54 5724-Y55 5655-Y21
Copyright IBM Corp. 1988, 2019.  All Rights Reserved.

Type 'help' for a list of available commands.
Type 'help' followed by a command name for more
information on commands.

CPLEX> Logfile 'cplex.log' closed.
Logfile 'C:\Users\llavin\Desktop\test826\logs\tmp8lkbirc4.cplex.log' open.
CPLEX> New value for parallel optimization mode: -1
CPLEX> New value for mixed integer optimality gap tolerance: 0.5
CPLEX> New value for feasibility tolerance: 1e-09
CPLEX> New value for deterministic time limit in ticks: 50000
CPLEX> Problem 'C:\Users\llavin\Desktop\test826\logs\tmpgp3aoy5e.pyomo.lp' read.
Read time = 0.53 sec. (28.90 ticks)
CPLEX> MIP start file 'C:\Users\llavin\Desktop\test826\logs\tmpe71yufzw.cplex.mst' read.
CPLEX> Problem name         : C:\Users\llavin\Desktop\test826\logs\tmpgp3aoy5e.pyomo.lp
Objective sense      : Maximize
Variables            :  109223  [Nneg: 1,  Box: 45498,  Free: 8928,
                                 Binary: 54796]
Objective nonzeros   :   20450
Linear constraints   :  246903  [Less: 82866,  Greater: 118424,  Equal: 45613]
  Nonzeros           :  619901
  RHS nonzeros       :  136514

Variables            : Min LB: -5000.000        Max UB: 1000000.       
Objective nonzeros   : Min   : 0.1666667        Max   : 208.3333       
Linear constraints   :
  Nonzeros           : Min   : 0.1666667        Max   : 1000000.       
  RHS nonzeros       : Min   : 0.1666667        Max   : 1000000.       
CPLEX> CPXPARAM_Parallel                                -1
CPXPARAM_Simplex_Tolerances_Feasibility          1.0000000000000001e-09
CPXPARAM_DetTimeLimit                            50000
CPXPARAM_MIP_Tolerances_MIPGap                   0.5
Warning:  No solution found from 1 MIP starts.
Retaining values of one MIP start for possible repair.
Tried aggregator 3 times.
MIP Presolve eliminated 173633 rows and 36112 columns.
MIP Presolve added 7679 rows and 0 columns.
MIP Presolve modified 53008 coefficients.
Aggregator did 26046 substitutions.
Reduced MIP has 54903 rows, 46681 columns, and 157474 nonzeros.
Reduced MIP has 18495 binaries, 0 generals, 0 SOSs, and 0 indicators.
Presolve time = 0.61 sec. (350.69 ticks)
Probing fixed 810 vars, tightened 15592 bounds.
Probing time = 0.41 sec. (18.87 ticks)
Tried aggregator 2 times.
MIP Presolve eliminated 1828 rows and 1645 columns.
MIP Presolve modified 7067 coefficients.
Aggregator did 80 substitutions.
Reduced MIP has 52995 rows, 44956 columns, and 151853 nonzeros.
Reduced MIP has 17680 binaries, 0 generals, 0 SOSs, and 0 indicators.
Presolve time = 0.31 sec. (277.03 ticks)
Probing fixed 5 vars, tightened 476 bounds.
Probing time = 0.56 sec. (21.61 ticks)
Clique table members: 86906.
MIP emphasis: balance optimality and feasibility.
MIP search method: dynamic search.
Parallel mode: opportunistic, using up to 32 threads.
Root relaxation solution time = 1.28 sec. (2065.09 ticks)

        Nodes                                         Cuts/
   Node  Left     Objective  IInf  Best Integer    Best Bound    ItCnt     Gap

      0     0     1291.3203    59                   1291.3203     9747         
      0     0     1291.3203     4                    Cuts: 21     9756         
      0     0     1291.3203     5                     Cuts: 2     9761         
      0     0     1291.3203     7                   Covers: 1     9764         
*     0+    0                          786.4479     1291.3203            64.20%
Repair heuristic found nothing.
      0     2     1291.3203     7      786.4479   Impl Bds: 9     9764   64.20%
Elapsed time = 13.88 sec. (7407.15 ticks, tree = 0.02 MB, solutions = 1)
    103   242     1063.6320     6      786.4479     1291.3203    11168   64.20%
    333   143     1256.6199     7      786.4479     1291.3203    10509   64.20%
    551   152     1256.6199     6      786.4479     1291.3203    10563   64.20%
    800   892        cutoff            786.4479     1291.3203    16279   64.20%
   1018   283     1256.6199     6      786.4479     1291.3203    11515   64.20%
   1253   750     1256.6199     6      786.4479     1291.3203    15022   64.20%
   1474   504     1063.6320     5      786.4479     1291.3203    13147   64.20%
   1680   894      941.1015     2      786.4479     1256.6199    16452   59.78%
   1913  1268     1256.6199     6      786.4479     1256.6199    20519   59.78%
   2976  1800        cutoff            786.4479     1256.6199    26055   59.78%
Elapsed time = 35.03 sec. (10514.46 ticks, tree = 34.37 MB, solutions = 1)
   4340  2435      941.1015     2      786.4479     1256.6199    38887   59.78%
   5685  2361        cutoff            786.4479     1256.6199    36633   59.78%
   6949  2539      941.1015     2      786.4479     1256.6199    42588   59.78%
   8232  2744        cutoff            786.4479     1256.6199    51567   59.78%
   9179  2699        cutoff            786.4479     1256.6199    50385   59.78%
   9432  3444     1256.6199     6      786.4479     1256.6199    67126   59.78%
  10218   127     1256.6199     7      786.4479     1256.6199    67624   59.78%
  11050   731     1063.6320     6      786.4479     1256.6199    68951   59.78%
  12095   867     1203.1994     8      786.4479     1256.6199    69275   59.78%
  13635  1660     1101.9662     4      786.4479     1256.6199    71306   59.78%
Elapsed time = 119.83 sec. (27595.83 ticks, tree = 16.64 MB, solutions = 1)
  16896  4295      908.9783     3      786.4479     1256.6199    77951   59.78%
  20119  2070     1134.0895     5      786.4479     1256.6199    72423   59.78%
  23648  2645      908.9783     4      786.4479     1256.6199    73875   59.78%
  26922  8153      908.9783     3      786.4479     1256.6199    89334   59.78%
  29918  6281      908.9783     2      786.4479     1256.6199    84012   59.78%
  32921  8336     1063.6320     6      786.4479     1256.6199    89789   59.78%
  35897 18675     1063.6320     7      786.4479     1256.6199   119247   59.78%
  38868 20354      908.9783     3      786.4479     1256.6199   123567   59.78%
  41701 23779      908.9783     3      786.4479     1256.6199   132040   59.78%
  44651 24258      908.9783     3      786.4479     1256.6199   133402   59.78%
Elapsed time = 179.56 sec. (37135.18 ticks, tree = 328.81 MB, solutions = 1)
  47651 27082      915.5976     6      786.4479     1256.6199   142244   59.78%
  50717 20993     1063.6320     7      786.4479     1256.6199   125196   59.78%
  53894 29875     1063.6320     5      786.4479     1256.6199   150605   59.78%
  57179 35467      908.9783     3      786.4479     1256.6199   167581   59.78%
  60523 28461      908.9783     2      786.4479     1256.6199   146264   59.78%
  63910 31839     1063.6320     7      786.4479     1256.6199   156674   59.78%
  67149 35146     1063.6320     5      786.4479     1256.6199   166535   59.78%
  70134 37507      908.9783     3      786.4479     1256.6199   174683   59.78%
  72934 36168      908.9783     3      786.4479     1256.6199   169840   59.78%
  75570 41532     1063.6320     5      786.4479     1256.6199   188068   59.78%
Elapsed time = 292.95 sec. (46674.96 ticks, tree = 572.34 MB, solutions = 1)
  77808 41251      908.9783     3      786.4479     1256.6199   187030   59.78%
  79604 45824     1063.6320     6      786.4479     1256.6199   203827   59.78%
  80700 47675      908.9783     3      786.4479     1256.6199   210467   59.78%

Cover cuts applied:  4
Gomory fractional cuts applied:  2

Root node processing (before b&c):
  Real time             =    9.17 sec. (7275.05 ticks)
Parallel b&c, 32 threads:
  Real time             =  298.11 sec. (42756.36 ticks)
  Sync time (average)   =    5.97 sec.
  Wait time (average)   =    0.30 sec.
                          ------------
Total (root+branch&cut) =  307.28 sec. (50031.40 ticks)

Solution pool: 1 solution saved.

MIP - Deterministic time limit exceeded, integer feasible:  Objective =  7.8644787051e+02
Current MIP best bound =  1.2566199013e+03 (gap = 470.172, 59.78%)
Solution time =  307.31 sec.  Iterations = 243598  Nodes = 80945 (55885)
Deterministic time = 50031.72 ticks  (162.80 ticks/sec)

CPLEX> Incumbent solution written to file 'C:\Users\llavin\Desktop\test826\logs\tmp7p78dr45.cplex.sol'.
CPLEX> Exporting results... 
